NAME : B-n67-k10.1032.tour
COMMENT : Cost = 0_1032
COMMENT : Found by LKH [Keld Helsgaun] Wed Sep 13 11:40:34 2017
TYPE : TOUR
DIMENSION : 76
TOUR_SECTION
1
13
46
53
23
55
56
16
57
59
74
18
39
11
30
25
60
42
69
5
43
35
7
65
41
45
54
76
61
4
58
31
62
63
72
6
29
14
73
47
12
51
8
28
44
17
70
64
26
22
49
10
71
67
52
33
9
24
38
66
75
40
37
2
50
36
20
21
15
68
32
19
27
3
48
34
-1
EOF
